words_hard_train/5455.qaiger
aag 169 23 0 1 146
2
4
12
22
30
32
56
66
68
92
102
104
148
158
160
190
200
202
258
260
268
280
282
339
6 3 5
8 2 4
10 7 9
14 2 12
16 15 9
18 4 12
20 17 19
24 2 22
26 3 23
28 25 27
34 31 33
36 30 32
38 35 37
40 19 39
42 18 38
44 41 43
46 29 45
48 28 44
50 47 49
52 20 50
54 53 49
58 27 56
60 26 57
62 59 61
64 43 37
70 67 69
72 66 68
74 71 73
76 64 75
78 65 74
80 77 79
82 63 81
84 62 80
86 83 85
88 55 86
90 89 85
94 61 92
96 60 93
98 95 97
100 79 73
106 103 105
108 102 104
110 107 109
112 100 111
114 101 110
116 113 115
118 99 117
120 98 116
122 119 121
124 90 123
126 91 122
128 125 127
130 128 105
132 11 131
134 21 51
136 135 53
138 137 33
140 136 32
142 139 141
144 132 143
146 127 121
150 97 148
152 96 149
154 151 153
156 115 109
162 159 161
164 158 160
166 163 165
168 156 167
170 157 166
172 169 171
174 155 173
176 154 172
178 175 177
180 146 179
182 147 178
184 181 183
186 185 160
188 183 177
192 153 190
194 152 191
196 193 195
198 171 165
204 201 203
206 200 202
208 205 207
210 198 209
212 199 208
214 211 213
216 197 215
218 196 214
220 217 219
222 188 221
224 189 220
226 223 225
228 226 203
230 187 229
232 144 230
234 54 87
236 235 89
238 236 68
240 237 69
242 239 241
244 184 161
246 243 245
248 227 202
250 246 249
252 129 104
254 250 253
256 232 254
262 258 261
264 259 260
266 263 265
270 194 269
272 266 271
274 267 270
276 273 275
278 213 207
284 281 283
286 280 282
288 285 287
290 279 288
292 291 287
294 277 293
296 276 292
298 295 297
300 225 219
302 195 268
304 303 271
306 278 289
308 307 291
310 305 309
312 304 308
314 311 313
316 301 314
318 317 313
320 299 319
322 298 318
324 321 323
326 300 315
328 327 317
330 329 282
332 328 283
334 331 333
336 324 334
338 256 336
i0 1 x1[0]
i1 2 y2[0]
i2 2 y1[0]
i3 1 x1[1]
i4 2 y2[1]
i5 2 y1[1]
i6 1 x1[2]
i7 2 y2[2]
i8 2 y1[2]
i9 1 x1[3]
i10 2 y2[3]
i11 2 y1[3]
i12 1 x1[4]
i13 2 y2[4]
i14 2 y1[4]
i15 1 x1[5]
i16 2 y2[5]
i17 2 y1[5]
i18 1 x1[7]
i19 2 y2[7]
i20 1 x1[6]
i21 2 y2[6]
i22 2 y1[6]
o0 bool[0]
c
simplified
  !=
    add
      unary minus
        1 x1
      add
        2 y2
        2 y1
    2 y1
