words_hard_train/5455.qaiger.qdimacs
p cnf 169 439
a 1 129 134 74 11 46 28 95 0
e 2 3 4 5 6 7 8 9 10 12 13 14 15 16 17 18 19 20 21 22 23 24 25 26 27 29 30 31 32 33 34 35 36 37 38 39 40 41 42 43 44 45 47 48 49 50 51 52 53 54 55 56 57 58 59 60 61 62 63 64 65 66 67 68 69 70 71 72 73 75 76 77 78 79 80 81 82 83 84 85 86 87 88 89 90 91 92 93 94 96 97 98 99 100 101 102 103 104 105 106 107 108 109 110 111 112 113 114 115 116 117 118 119 120 121 122 123 124 125 126 127 128 130 131 132 133 135 136 137 138 139 140 141 142 143 144 145 146 147 148 149 150 151 152 153 154 155 156 157 158 159 160 161 162 163 164 165 166 167 168 169 0
1 2 3 0
-1 -3 0
-2 -3 0
-1 -2 4 0
1 -4 0
2 -4 0
3 4 5 0
-3 -5 0
-4 -5 0
-1 -6 7 0
1 -7 0
6 -7 0
7 4 8 0
-7 -8 0
-4 -8 0
-2 -6 9 0
2 -9 0
6 -9 0
8 9 10 0
-8 -10 0
-9 -10 0
-1 -11 12 0
1 -12 0
11 -12 0
1 11 13 0
-1 -13 0
-11 -13 0
12 13 14 0
-12 -14 0
-13 -14 0
15 16 17 0
-15 -17 0
-16 -17 0
-15 -16 18 0
15 -18 0
16 -18 0
17 18 19 0
-17 -19 0
-18 -19 0
9 19 20 0
-9 -20 0
-19 -20 0
-9 -19 21 0
9 -21 0
19 -21 0
20 21 22 0
-20 -22 0
-21 -22 0
14 22 23 0
-14 -23 0
-22 -23 0
-14 -22 24 0
14 -24 0
22 -24 0
23 24 25 0
-23 -25 0
-24 -25 0
-10 -25 26 0
10 -26 0
25 -26 0
26 24 27 0
-26 -27 0
-24 -27 0
13 -28 29 0
-13 -29 0
28 -29 0
-13 28 30 0
13 -30 0
-28 -30 0
29 30 31 0
-29 -31 0
-30 -31 0
21 18 32 0
-21 -32 0
-18 -32 0
33 34 35 0
-33 -35 0
-34 -35 0
-33 -34 36 0
33 -36 0
34 -36 0
35 36 37 0
-35 -37 0
-36 -37 0
-32 37 38 0
32 -38 0
-37 -38 0
32 -37 39 0
-32 -39 0
37 -39 0
38 39 40 0
-38 -40 0
-39 -40 0
31 40 41 0
-31 -41 0
-40 -41 0
-31 -40 42 0
31 -42 0
40 -42 0
41 42 43 0
-41 -43 0
-42 -43 0
27 -43 44 0
-27 -44 0
43 -44 0
44 42 45 0
-44 -45 0
-42 -45 0
30 -46 47 0
-30 -47 0
46 -47 0
-30 46 48 0
30 -48 0
-46 -48 0
47 48 49 0
-47 -49 0
-48 -49 0
39 36 50 0
-39 -50 0
-36 -50 0
51 52 53 0
-51 -53 0
-52 -53 0
-51 -52 54 0
51 -54 0
52 -54 0
53 54 55 0
-53 -55 0
-54 -55 0
-50 55 56 0
50 -56 0
-55 -56 0
50 -55 57 0
-50 -57 0
55 -57 0
56 57 58 0
-56 -58 0
-57 -58 0
49 58 59 0
-49 -59 0
-58 -59 0
-49 -58 60 0
49 -60 0
58 -60 0
59 60 61 0
-59 -61 0
-60 -61 0
-45 61 62 0
45 -62 0
-61 -62 0
45 -61 63 0
-45 -63 0
61 -63 0
62 63 64 0
-62 -64 0
-63 -64 0
-64 52 65 0
64 -65 0
-52 -65 0
5 65 66 0
-5 -66 0
-65 -66 0
10 25 67 0
-10 -67 0
-25 -67 0
67 26 68 0
-67 -68 0
-26 -68 0
68 16 69 0
-68 -69 0
-16 -69 0
-68 -16 70 0
68 -70 0
16 -70 0
69 70 71 0
-69 -71 0
-70 -71 0
-66 71 72 0
66 -72 0
-71 -72 0
63 60 73 0
-63 -73 0
-60 -73 0
48 -74 75 0
-48 -75 0
74 -75 0
-48 74 76 0
48 -76 0
-74 -76 0
75 76 77 0
-75 -77 0
-76 -77 0
57 54 78 0
-57 -78 0
-54 -78 0
79 80 81 0
-79 -81 0
-80 -81 0
-79 -80 82 0
79 -82 0
80 -82 0
81 82 83 0
-81 -83 0
-82 -83 0
-78 83 84 0
78 -84 0
-83 -84 0
78 -83 85 0
-78 -85 0
83 -85 0
84 85 86 0
-84 -86 0
-85 -86 0
77 86 87 0
-77 -87 0
-86 -87 0
-77 -86 88 0
77 -88 0
86 -88 0
87 88 89 0
-87 -89 0
-88 -89 0
-73 89 90 0
73 -90 0
-89 -90 0
73 -89 91 0
-73 -91 0
89 -91 0
90 91 92 0
-90 -92 0
-91 -92 0
92 -80 93 0
-92 -93 0
80 -93 0
91 88 94 0
-91 -94 0
-88 -94 0
76 -95 96 0
-76 -96 0
95 -96 0
-76 95 97 0
76 -97 0
-95 -97 0
96 97 98 0
-96 -98 0
-97 -98 0
85 82 99 0
-85 -99 0
-82 -99 0
100 101 102 0
-100 -102 0
-101 -102 0
-100 -101 103 0
100 -103 0
101 -103 0
102 103 104 0
-102 -104 0
-103 -104 0
-99 104 105 0
99 -105 0
-104 -105 0
99 -104 106 0
-99 -106 0
104 -106 0
105 106 107 0
-105 -107 0
-106 -107 0
98 107 108 0
-98 -108 0
-107 -108 0
-98 -107 109 0
98 -109 0
107 -109 0
108 109 110 0
-108 -110 0
-109 -110 0
-94 110 111 0
94 -111 0
-110 -111 0
94 -110 112 0
-94 -112 0
110 -112 0
111 112 113 0
-111 -113 0
-112 -113 0
-113 101 114 0
113 -114 0
-101 -114 0
93 114 115 0
-93 -115 0
-114 -115 0
-72 -115 116 0
72 -116 0
115 -116 0
-27 43 117 0
27 -117 0
-43 -117 0
117 44 118 0
-117 -118 0
-44 -118 0
-118 -34 119 0
118 -119 0
34 -119 0
118 34 120 0
-118 -120 0
-34 -120 0
119 120 121 0
-119 -121 0
-120 -121 0
-92 80 122 0
92 -122 0
-80 -122 0
121 122 123 0
-121 -123 0
-122 -123 0
113 -101 124 0
-113 -124 0
101 -124 0
-123 124 125 0
123 -125 0
-124 -125 0
64 -52 126 0
-64 -126 0
52 -126 0
-125 126 127 0
125 -127 0
-126 -127 0
-116 -127 128 0
116 -128 0
127 -128 0
-129 130 131 0
129 -131 0
-130 -131 0
129 -130 132 0
-129 -132 0
130 -132 0
131 132 133 0
-131 -133 0
-132 -133 0
-97 134 135 0
97 -135 0
-134 -135 0
-133 135 136 0
133 -136 0
-135 -136 0
133 -135 137 0
-133 -137 0
135 -137 0
136 137 138 0
-136 -138 0
-137 -138 0
106 103 139 0
-106 -139 0
-103 -139 0
140 141 142 0
-140 -142 0
-141 -142 0
-140 -141 143 0
140 -143 0
141 -143 0
142 143 144 0
-142 -144 0
-143 -144 0
139 -144 145 0
-139 -145 0
144 -145 0
145 143 146 0
-145 -146 0
-143 -146 0
138 146 147 0
-138 -147 0
-146 -147 0
-138 -146 148 0
138 -148 0
146 -148 0
147 148 149 0
-147 -149 0
-148 -149 0
112 109 150 0
-112 -150 0
-109 -150 0
97 -134 151 0
-97 -151 0
134 -151 0
151 135 152 0
-151 -152 0
-135 -152 0
-139 144 153 0
139 -153 0
-144 -153 0
153 145 154 0
-153 -154 0
-145 -154 0
152 154 155 0
-152 -155 0
-154 -155 0
-152 -154 156 0
152 -156 0
154 -156 0
155 156 157 0
-155 -157 0
-156 -157 0
150 -157 158 0
-150 -158 0
157 -158 0
158 156 159 0
-158 -159 0
-156 -159 0
149 159 160 0
-149 -160 0
-159 -160 0
-149 -159 161 0
149 -161 0
159 -161 0
160 161 162 0
-160 -162 0
-161 -162 0
-150 157 163 0
150 -163 0
-157 -163 0
163 158 164 0
-163 -164 0
-158 -164 0
164 -141 165 0
-164 -165 0
141 -165 0
-164 141 166 0
164 -166 0
-141 -166 0
165 166 167 0
-165 -167 0
-166 -167 0
-162 -167 168 0
162 -168 0
167 -168 0
-128 -168 169 0
128 -169 0
168 -169 0
-169 0
